
Gurobi 11.0.0 (win64) logging started Sat Jun 15 09:47:18 2024

Set parameter LogFile to value "./GurobiLog/stage_3_iter_6.log"
Gurobi Optimizer version 11.0.0 build v11.0.0rc2 (win64 - Windows 10.0 (18363.2))

CPU model: Intel(R) Core(TM) i7-8700 CPU @ 3.20GHz, instruction set [SSE2|AVX|AVX2]
Thread count: 6 physical cores, 12 logical processors, using up to 1 threads

Optimize a model with 1065 rows, 10910 columns and 18470 nonzeros
Coefficient statistics:
  Matrix range     [1e+00, 4e+01]
  Objective range  [2e+00, 2e+05]
  Bounds range     [2e+00, 1e+04]
  RHS range        [1e+00, 3e+04]
LP warm-start: use basis
Iteration    Objective       Primal Inf.    Dual Inf.      Time
       0   -4.1770440e+03   1.898531e+03   0.000000e+00      0s
     201    9.9014356e+03   0.000000e+00   0.000000e+00      0s

Solved in 201 iterations and 0.01 seconds (0.01 work units)
Optimal objective  9.901435614e+03

Gurobi 11.0.0 (win64) logging started Sat Jun 15 10:45:58 2024

Set parameter LogFile to value "./GurobiLog/stage_3_iter_6.log"
Gurobi Optimizer version 11.0.0 build v11.0.0rc2 (win64 - Windows 10.0 (18363.2))

CPU model: Intel(R) Core(TM) i7-8700 CPU @ 3.20GHz, instruction set [SSE2|AVX|AVX2]
Thread count: 6 physical cores, 12 logical processors, using up to 1 threads

Optimize a model with 1065 rows, 10910 columns and 18470 nonzeros
Coefficient statistics:
  Matrix range     [1e+00, 4e+01]
  Objective range  [2e+00, 2e+05]
  Bounds range     [1e+00, 1e+04]
  RHS range        [1e+00, 3e+04]
LP warm-start: use basis
Iteration    Objective       Primal Inf.    Dual Inf.      Time
       0   -1.4078020e+03   6.628253e+03   0.000000e+00      0s
     208    1.5608179e+04   0.000000e+00   0.000000e+00      0s

Solved in 208 iterations and 0.01 seconds (0.00 work units)
Optimal objective  1.560817856e+04

Gurobi 11.0.0 (win64) logging started Sat Jun 15 11:04:49 2024

Set parameter LogFile to value "./GurobiLog/stage_3_iter_6.log"
Gurobi Optimizer version 11.0.0 build v11.0.0rc2 (win64 - Windows 10.0 (18363.2))

CPU model: Intel(R) Core(TM) i7-8700 CPU @ 3.20GHz, instruction set [SSE2|AVX|AVX2]
Thread count: 6 physical cores, 12 logical processors, using up to 1 threads

Optimize a model with 1065 rows, 10910 columns and 18470 nonzeros
Coefficient statistics:
  Matrix range     [1e+00, 4e+01]
  Objective range  [2e+00, 2e+05]
  Bounds range     [6e-01, 1e+04]
  RHS range        [1e+00, 3e+04]
LP warm-start: use basis
Iteration    Objective       Primal Inf.    Dual Inf.      Time
       0    1.1008317e+03   3.363510e+03   0.000000e+00      0s
     157    8.6776753e+03   0.000000e+00   0.000000e+00      0s

Solved in 157 iterations and 0.01 seconds (0.00 work units)
Optimal objective  8.677675307e+03
